N = 576;
M = 1426;
Edge_Start = [1, 1, 2, 3, 3, 4, 5, 5, 6, 7, 7, 8, 9, 9, 11, 11, 12, 13, 14, 15, 15, 16, 17, 17, 18, 19, 19, 20, 21, 22, 23, 23, 24, 25, 25, 26, 27, 28, 29, 29, 30, 31, 31, 32, 33, 34, 35, 35, 36, 37, 37, 39, 39, 40, 41, 42, 43, 43, 45, 45, 46, 47, 47, 49, 50, 51, 52, 53, 53, 54, 55, 57, 58, 59, 59, 60, 62, 63, 63, 65, 65, 66, 67, 68, 68, 69, 70, 70, 71, 72, 72, 73, 74, 75, 76, 76, 77, 78, 80, 80, 81, 82, 82, 83, 84, 84, 85, 86, 86, 87, 88, 88, 89, 90, 90, 91, 92, 92, 93, 94, 95, 96, 97, 98, 98, 99, 100, 102, 103, 103, 104, 105, 106, 107, 107, 108, 109, 109, 110, 111, 111, 113, 113, 114, 115, 115, 116, 117, 117, 119, 119, 120, 121, 121, 122, 123, 123, 124, 125, 125, 126, 127, 128, 129, 129, 130, 131, 131, 132, 133, 133, 134, 135, 136, 136, 137, 138, 139, 140, 140, 142, 142, 143, 144, 144, 145, 146, 146, 147, 148, 148, 150, 150, 151, 152, 152, 154, 154, 155, 156, 156, 157, 158, 159, 160, 160, 161, 162, 163, 164, 164, 165, 166, 166, 167, 168, 168, 170, 171, 172, 173, 174, 176, 177, 179, 180, 181, 182, 183, 185, 185, 187, 187, 188, 189, 189, 190, 191, 191, 192, 193, 193, 194, 195, 195, 196, 197, 198, 199, 200, 201, 201, 202, 203, 204, 204, 205, 206, 207, 208, 209, 210, 210, 211, 212, 212, 213, 214, 214, 215, 216, 216, 217, 218, 218, 219, 220, 221, 222, 223, 224, 225, 226, 227, 228, 228, 230, 230, 232, 233, 234, 234, 235, 236, 236, 238, 239, 240, 241, 241, 242, 243, 243, 244, 245, 245, 246, 247, 248, 249, 249, 250, 251, 252, 253, 253, 254, 255, 255, 256, 257, 258, 259, 259, 260, 261, 261, 262, 263, 263, 264, 265, 265, 266, 267, 267, 268, 269, 271, 272, 272, 273, 274, 275, 276, 276, 278, 279, 280, 280, 281, 282, 282, 283, 284, 284, 285, 286, 286, 287, 288, 288, 289, 290, 290, 291, 292, 293, 294, 294, 295, 296, 296, 297, 298, 298, 299, 301, 302, 302, 303, 304, 304, 307, 308, 309, 309, 310, 311, 312, 313, 313, 314, 315, 315, 316, 317, 317, 318, 319, 319, 320, 321, 322, 323, 323, 324, 325, 326, 327, 327, 328, 329, 329, 330, 331, 332, 333, 333, 334, 335, 335, 336, 337, 337, 338, 339, 340, 340, 341, 342, 342, 343, 344, 345, 346, 346, 347, 348, 348, 349, 350, 350, 351, 352, 354, 354, 355, 356, 356, 357, 358, 358, 359, 360, 360, 361, 362, 364, 364, 365, 366, 367, 368, 368, 369, 370, 370, 372, 374, 375, 375, 376, 377, 377, 378, 379, 379, 380, 381, 381, 382, 383, 384, 385, 385, 387, 387, 389, 389, 391, 391, 393, 393, 394, 395, 395, 396, 397, 397, 398, 399, 399, 400, 401, 401, 403, 403, 404, 405, 405, 406, 407, 408, 408, 409, 410, 410, 411, 412, 412, 414, 414, 416, 416, 417, 418, 418, 419, 420, 421, 422, 423, 424, 424, 425, 426, 426, 427, 428, 428, 429, 430, 431, 432, 432, 434, 435, 436, 436, 438, 438, 439, 440, 442, 443, 443, 445, 445, 446, 447, 447, 448, 449, 449, 450, 451, 451, 452, 453, 453, 454, 455, 455, 457, 457, 458, 459, 459, 461, 461, 462, 463, 463, 464, 465, 465, 466, 467, 467, 468, 469, 469, 470, 471, 471, 473, 473, 474, 475, 476, 476, 478, 478, 479, 480, 480, 481, 482, 482, 483, 484, 484, 485, 486, 486, 487, 488, 489, 490, 490, 491, 493, 494, 495, 496, 496, 497, 498, 498, 500, 500, 501, 502, 503, 504, 504, 505, 506, 506, 507, 508, 508, 510, 511, 511, 512, 513, 513, 515, 515, 516, 517, 518, 519, 519, 520, 521, 521, 522, 523, 523, 525, 525, 526, 527, 527, 528, 529, 529, 530, 531, 531, 532, 533, 533, 534, 535, 536, 537, 538, 540, 541, 541, 542, 543, 545, 546, 547, 548, 549, 550, 551, 552, 553, 555, 556, 557, 559, 560, 561, 562, 563, 564, 565, 566, 567, 569, 570, 571, 573, 574, 575, 2, 34, 3, 4, 36, 5, 6, 38, 7, 8, 40, 9, 10, 42, 12, 44, 13, 46, 15, 16, 48, 17, 18, 50, 19, 20, 52, 21, 22, 23, 24, 56, 25, 26, 58, 27, 60, 29, 30, 62, 31, 32, 64, 33, 66, 35, 36, 69, 37, 38, 71, 40, 73, 41, 75, 43, 44, 77, 46, 79, 47, 48, 81, 83, 51, 85, 53, 54, 87, 55, 89, 91, 59, 60, 93, 61, 63, 64, 97, 66, 99, 67, 101, 69, 102, 70, 71, 104, 72, 73, 106, 74, 75, 76, 77, 110, 78, 79, 81, 114, 82, 83, 116, 84, 85, 118, 86, 87, 120, 88, 89, 122, 90, 91, 124, 92, 93, 126, 94, 128, 96, 97, 98, 99, 132, 100, 101, 103, 104, 137, 105, 139, 107, 108, 141, 109, 110, 143, 111, 112, 145, 114, 147, 115, 116, 149, 117, 118, 151, 120, 153, 121, 122, 155, 123, 124, 157, 125, 126, 159, 127, 128, 129, 130, 163, 131, 132, 165, 133, 134, 167, 135, 169, 137, 170, 138, 172, 140, 141, 174, 143, 176, 144, 145, 178, 146, 147, 180, 148, 149, 182, 151, 184, 152, 153, 186, 155, 188, 156, 157, 190, 158, 192, 160, 161, 194, 162, 163, 164, 165, 198, 166, 167, 200, 168, 169, 202, 171, 172, 173, 174, 175, 177, 178, 180, 181, 182, 183, 184, 186, 219, 188, 221, 189, 190, 223, 191, 192, 225, 193, 194, 227, 195, 196, 229, 197, 231, 199, 200, 201, 202, 235, 203, 237, 205, 238, 206, 240, 208, 209, 210, 211, 244, 212, 213, 246, 214, 215, 248, 216, 217, 250, 218, 219, 252, 220, 221, 222, 223, 224, 258, 226, 260, 228, 229, 262, 231, 264, 266, 234, 235, 268, 236, 237, 270, 239, 240, 241, 242, 275, 243, 244, 277, 245, 246, 279, 247, 248, 249, 250, 283, 251, 285, 253, 254, 287, 255, 256, 289, 257, 258, 259, 260, 293, 261, 262, 295, 263, 264, 297, 265, 266, 299, 267, 268, 301, 269, 303, 305, 273, 306, 274, 308, 276, 277, 310, 312, 280, 281, 314, 282, 283, 316, 284, 285, 318, 286, 287, 320, 288, 289, 322, 290, 291, 324, 292, 326, 294, 295, 328, 296, 297, 330, 298, 299, 332, 300, 302, 303, 336, 304, 305, 338, 341, 309, 310, 343, 311, 345, 313, 314, 347, 315, 316, 349, 317, 318, 351, 319, 320, 353, 321, 355, 323, 324, 357, 325, 326, 327, 328, 361, 329, 330, 363, 331, 332, 333, 334, 367, 335, 336, 369, 337, 338, 371, 339, 373, 341, 374, 342, 343, 376, 344, 378, 346, 347, 380, 348, 349, 382, 350, 351, 384, 352, 386, 355, 388, 356, 357, 390, 358, 359, 392, 360, 361, 394, 362, 363, 365, 398, 366, 367, 368, 369, 402, 370, 371, 404, 406, 375, 376, 409, 377, 378, 411, 379, 380, 413, 381, 382, 415, 383, 384, 385, 386, 419, 388, 421, 390, 423, 392, 425, 394, 427, 395, 396, 429, 397, 398, 431, 399, 400, 433, 401, 402, 435, 404, 437, 405, 406, 439, 407, 441, 409, 442, 410, 411, 444, 412, 413, 446, 415, 448, 417, 450, 418, 419, 452, 420, 454, 422, 423, 424, 425, 458, 426, 427, 460, 428, 429, 462, 430, 431, 432, 433, 466, 468, 436, 437, 470, 439, 472, 440, 474, 443, 444, 477, 446, 479, 447, 448, 481, 449, 450, 483, 451, 452, 485, 453, 454, 487, 455, 456, 489, 458, 491, 459, 460, 493, 462, 495, 463, 464, 497, 465, 466, 499, 467, 468, 501, 469, 470, 503, 471, 472, 505, 474, 507, 475, 509, 477, 510, 479, 512, 480, 481, 514, 482, 483, 516, 484, 485, 518, 486, 487, 520, 488, 522, 490, 491, 524, 492, 494, 528, 496, 497, 530, 498, 499, 532, 501, 534, 502, 536, 504, 505, 538, 506, 507, 540, 508, 509, 542, 511, 512, 544, 513, 514, 546, 516, 548, 517, 518, 519, 520, 552, 521, 522, 554, 523, 524, 556, 526, 558, 527, 528, 560, 529, 530, 562, 531, 532, 564, 533, 534, 566, 535, 536, 537, 570, 539, 541, 542, 574, 543, 576, 546, 547, 548, 549, 550, 551, 552, 553, 554, 556, 557, 558, 560, 561, 562, 563, 564, 565, 566, 567, 568, 570, 571, 572, 574, 575, 576];
Edge_End = [2, 34, 3, 4, 36, 5, 6, 38, 7, 8, 40, 9, 10, 42, 12, 44, 13, 46, 15, 16, 48, 17, 18, 50, 19, 20, 52, 21, 22, 23, 24, 56, 25, 26, 58, 27, 60, 29, 30, 62, 31, 32, 64, 33, 66, 35, 36, 69, 37, 38, 71, 40, 73, 41, 75, 43, 44, 77, 46, 79, 47, 48, 81, 83, 51, 85, 53, 54, 87, 55, 89, 91, 59, 60, 93, 61, 63, 64, 97, 66, 99, 67, 101, 69, 102, 70, 71, 104, 72, 73, 106, 74, 75, 76, 77, 110, 78, 79, 81, 114, 82, 83, 116, 84, 85, 118, 86, 87, 120, 88, 89, 122, 90, 91, 124, 92, 93, 126, 94, 128, 96, 97, 98, 99, 132, 100, 101, 103, 104, 137, 105, 139, 107, 108, 141, 109, 110, 143, 111, 112, 145, 114, 147, 115, 116, 149, 117, 118, 151, 120, 153, 121, 122, 155, 123, 124, 157, 125, 126, 159, 127, 128, 129, 130, 163, 131, 132, 165, 133, 134, 167, 135, 169, 137, 170, 138, 172, 140, 141, 174, 143, 176, 144, 145, 178, 146, 147, 180, 148, 149, 182, 151, 184, 152, 153, 186, 155, 188, 156, 157, 190, 158, 192, 160, 161, 194, 162, 163, 164, 165, 198, 166, 167, 200, 168, 169, 202, 171, 172, 173, 174, 175, 177, 178, 180, 181, 182, 183, 184, 186, 219, 188, 221, 189, 190, 223, 191, 192, 225, 193, 194, 227, 195, 196, 229, 197, 231, 199, 200, 201, 202, 235, 203, 237, 205, 238, 206, 240, 208, 209, 210, 211, 244, 212, 213, 246, 214, 215, 248, 216, 217, 250, 218, 219, 252, 220, 221, 222, 223, 224, 258, 226, 260, 228, 229, 262, 231, 264, 266, 234, 235, 268, 236, 237, 270, 239, 240, 241, 242, 275, 243, 244, 277, 245, 246, 279, 247, 248, 249, 250, 283, 251, 285, 253, 254, 287, 255, 256, 289, 257, 258, 259, 260, 293, 261, 262, 295, 263, 264, 297, 265, 266, 299, 267, 268, 301, 269, 303, 305, 273, 306, 274, 308, 276, 277, 310, 312, 280, 281, 314, 282, 283, 316, 284, 285, 318, 286, 287, 320, 288, 289, 322, 290, 291, 324, 292, 326, 294, 295, 328, 296, 297, 330, 298, 299, 332, 300, 302, 303, 336, 304, 305, 338, 341, 309, 310, 343, 311, 345, 313, 314, 347, 315, 316, 349, 317, 318, 351, 319, 320, 353, 321, 355, 323, 324, 357, 325, 326, 327, 328, 361, 329, 330, 363, 331, 332, 333, 334, 367, 335, 336, 369, 337, 338, 371, 339, 373, 341, 374, 342, 343, 376, 344, 378, 346, 347, 380, 348, 349, 382, 350, 351, 384, 352, 386, 355, 388, 356, 357, 390, 358, 359, 392, 360, 361, 394, 362, 363, 365, 398, 366, 367, 368, 369, 402, 370, 371, 404, 406, 375, 376, 409, 377, 378, 411, 379, 380, 413, 381, 382, 415, 383, 384, 385, 386, 419, 388, 421, 390, 423, 392, 425, 394, 427, 395, 396, 429, 397, 398, 431, 399, 400, 433, 401, 402, 435, 404, 437, 405, 406, 439, 407, 441, 409, 442, 410, 411, 444, 412, 413, 446, 415, 448, 417, 450, 418, 419, 452, 420, 454, 422, 423, 424, 425, 458, 426, 427, 460, 428, 429, 462, 430, 431, 432, 433, 466, 468, 436, 437, 470, 439, 472, 440, 474, 443, 444, 477, 446, 479, 447, 448, 481, 449, 450, 483, 451, 452, 485, 453, 454, 487, 455, 456, 489, 458, 491, 459, 460, 493, 462, 495, 463, 464, 497, 465, 466, 499, 467, 468, 501, 469, 470, 503, 471, 472, 505, 474, 507, 475, 509, 477, 510, 479, 512, 480, 481, 514, 482, 483, 516, 484, 485, 518, 486, 487, 520, 488, 522, 490, 491, 524, 492, 494, 528, 496, 497, 530, 498, 499, 532, 501, 534, 502, 536, 504, 505, 538, 506, 507, 540, 508, 509, 542, 511, 512, 544, 513, 514, 546, 516, 548, 517, 518, 519, 520, 552, 521, 522, 554, 523, 524, 556, 526, 558, 527, 528, 560, 529, 530, 562, 531, 532, 564, 533, 534, 566, 535, 536, 537, 570, 539, 541, 542, 574, 543, 576, 546, 547, 548, 549, 550, 551, 552, 553, 554, 556, 557, 558, 560, 561, 562, 563, 564, 565, 566, 567, 568, 570, 571, 572, 574, 575, 576, 1, 1, 2, 3, 3, 4, 5, 5, 6, 7, 7, 8, 9, 9, 11, 11, 12, 13, 14, 15, 15, 16, 17, 17, 18, 19, 19, 20, 21, 22, 23, 23, 24, 25, 25, 26, 27, 28, 29, 29, 30, 31, 31, 32, 33, 34, 35, 35, 36, 37, 37, 39, 39, 40, 41, 42, 43, 43, 45, 45, 46, 47, 47, 49, 50, 51, 52, 53, 53, 54, 55, 57, 58, 59, 59, 60, 62, 63, 63, 65, 65, 66, 67, 68, 68, 69, 70, 70, 71, 72, 72, 73, 74, 75, 76, 76, 77, 78, 80, 80, 81, 82, 82, 83, 84, 84, 85, 86, 86, 87, 88, 88, 89, 90, 90, 91, 92, 92, 93, 94, 95, 96, 97, 98, 98, 99, 100, 102, 103, 103, 104, 105, 106, 107, 107, 108, 109, 109, 110, 111, 111, 113, 113, 114, 115, 115, 116, 117, 117, 119, 119, 120, 121, 121, 122, 123, 123, 124, 125, 125, 126, 127, 128, 129, 129, 130, 131, 131, 132, 133, 133, 134, 135, 136, 136, 137, 138, 139, 140, 140, 142, 142, 143, 144, 144, 145, 146, 146, 147, 148, 148, 150, 150, 151, 152, 152, 154, 154, 155, 156, 156, 157, 158, 159, 160, 160, 161, 162, 163, 164, 164, 165, 166, 166, 167, 168, 168, 170, 171, 172, 173, 174, 176, 177, 179, 180, 181, 182, 183, 185, 185, 187, 187, 188, 189, 189, 190, 191, 191, 192, 193, 193, 194, 195, 195, 196, 197, 198, 199, 200, 201, 201, 202, 203, 204, 204, 205, 206, 207, 208, 209, 210, 210, 211, 212, 212, 213, 214, 214, 215, 216, 216, 217, 218, 218, 219, 220, 221, 222, 223, 224, 225, 226, 227, 228, 228, 230, 230, 232, 233, 234, 234, 235, 236, 236, 238, 239, 240, 241, 241, 242, 243, 243, 244, 245, 245, 246, 247, 248, 249, 249, 250, 251, 252, 253, 253, 254, 255, 255, 256, 257, 258, 259, 259, 260, 261, 261, 262, 263, 263, 264, 265, 265, 266, 267, 267, 268, 269, 271, 272, 272, 273, 274, 275, 276, 276, 278, 279, 280, 280, 281, 282, 282, 283, 284, 284, 285, 286, 286, 287, 288, 288, 289, 290, 290, 291, 292, 293, 294, 294, 295, 296, 296, 297, 298, 298, 299, 301, 302, 302, 303, 304, 304, 307, 308, 309, 309, 310, 311, 312, 313, 313, 314, 315, 315, 316, 317, 317, 318, 319, 319, 320, 321, 322, 323, 323, 324, 325, 326, 327, 327, 328, 329, 329, 330, 331, 332, 333, 333, 334, 335, 335, 336, 337, 337, 338, 339, 340, 340, 341, 342, 342, 343, 344, 345, 346, 346, 347, 348, 348, 349, 350, 350, 351, 352, 354, 354, 355, 356, 356, 357, 358, 358, 359, 360, 360, 361, 362, 364, 364, 365, 366, 367, 368, 368, 369, 370, 370, 372, 374, 375, 375, 376, 377, 377, 378, 379, 379, 380, 381, 381, 382, 383, 384, 385, 385, 387, 387, 389, 389, 391, 391, 393, 393, 394, 395, 395, 396, 397, 397, 398, 399, 399, 400, 401, 401, 403, 403, 404, 405, 405, 406, 407, 408, 408, 409, 410, 410, 411, 412, 412, 414, 414, 416, 416, 417, 418, 418, 419, 420, 421, 422, 423, 424, 424, 425, 426, 426, 427, 428, 428, 429, 430, 431, 432, 432, 434, 435, 436, 436, 438, 438, 439, 440, 442, 443, 443, 445, 445, 446, 447, 447, 448, 449, 449, 450, 451, 451, 452, 453, 453, 454, 455, 455, 457, 457, 458, 459, 459, 461, 461, 462, 463, 463, 464, 465, 465, 466, 467, 467, 468, 469, 469, 470, 471, 471, 473, 473, 474, 475, 476, 476, 478, 478, 479, 480, 480, 481, 482, 482, 483, 484, 484, 485, 486, 486, 487, 488, 489, 490, 490, 491, 493, 494, 495, 496, 496, 497, 498, 498, 500, 500, 501, 502, 503, 504, 504, 505, 506, 506, 507, 508, 508, 510, 511, 511, 512, 513, 513, 515, 515, 516, 517, 518, 519, 519, 520, 521, 521, 522, 523, 523, 525, 525, 526, 527, 527, 528, 529, 529, 530, 531, 531, 532, 533, 533, 534, 535, 536, 537, 538, 540, 541, 541, 542, 543, 545, 546, 547, 548, 549, 550, 551, 552, 553, 555, 556, 557, 559, 560, 561, 562, 563, 564, 565, 566, 567, 569, 570, 571, 573, 574, 575];
L = [18, 5, 1, 13, 3, 8, 8, 6, 9, 1, 6, 7, 11, 1, 10, 17, 12, 7, 19, 1, 19, 19, 18, 7, 1, 16, 6, 18, 15, 12, 1, 13, 13, 15, 17, 13, 8, 9, 14, 13, 5, 17, 9, 13, 13, 2, 11, 7, 10, 18, 14, 11, 6, 1, 9, 4, 12, 3, 8, 11, 1, 2, 10, 11, 1, 11, 14, 1, 18, 18, 9, 15, 13, 16, 11, 9, 13, 2, 16, 14, 9, 1, 18, 3, 2, 16, 6, 12, 14, 17, 12, 11, 14, 4, 1, 10, 7, 16, 17, 2, 8, 8, 14, 4, 5, 2, 11, 13, 10, 6, 18, 19, 11, 9, 2, 1, 15, 4, 1, 11, 5, 1, 6, 1, 18, 9, 15, 4, 7, 1, 8, 5, 17, 2, 13, 6, 12, 4, 5, 1, 7, 12, 11, 5, 16, 2, 8, 15, 14, 5, 3, 14, 2, 7, 6, 3, 18, 18, 4, 17, 12, 9, 4, 11, 12, 18, 3, 5, 7, 11, 6, 9, 2, 9, 19, 3, 17, 7, 15, 7, 16, 17, 1, 18, 18, 11, 12, 3, 1, 6, 17, 16, 3, 3, 4, 15, 17, 16, 13, 18, 18, 7, 6, 19, 18, 4, 9, 16, 7, 1, 16, 4, 19, 5, 5, 17, 11, 7, 1, 1, 3, 1, 2, 14, 15, 18, 14, 10, 1, 13, 17, 3, 2, 4, 17, 2, 16, 4, 19, 10, 18, 13, 8, 12, 14, 3, 12, 5, 12, 16, 2, 17, 1, 12, 1, 5, 12, 19, 13, 6, 9, 3, 8, 4, 8, 3, 5, 11, 4, 19, 17, 12, 18, 1, 6, 2, 8, 4, 19, 18, 7, 11, 14, 19, 11, 18, 7, 15, 5, 18, 3, 19, 3, 18, 6, 14, 4, 10, 18, 4, 1, 7, 16, 10, 7, 1, 17, 14, 13, 1, 16, 18, 9, 8, 1, 18, 8, 8, 1, 12, 11, 2, 9, 15, 18, 6, 6, 18, 8, 16, 10, 12, 13, 17, 17, 11, 14, 19, 13, 11, 10, 9, 2, 10, 17, 11, 10, 8, 6, 12, 18, 10, 11, 2, 18, 19, 9, 17, 6, 5, 8, 13, 1, 4, 16, 3, 17, 14, 4, 13, 10, 13, 12, 6, 1, 11, 17, 14, 9, 5, 1, 13, 14, 3, 12, 12, 18, 5, 2, 13, 16, 4, 11, 14, 11, 16, 15, 10, 8, 14, 10, 12, 5, 3, 13, 18, 14, 4, 10, 15, 9, 8, 1, 12, 4, 1, 18, 8, 3, 14, 15, 8, 3, 14, 8, 11, 11, 1, 6, 12, 14, 9, 12, 14, 7, 10, 14, 16, 5, 13, 1, 8, 10, 4, 1, 13, 15, 17, 6, 15, 14, 18, 2, 5, 12, 9, 9, 13, 13, 15, 16, 3, 12, 10, 11, 16, 14, 8, 9, 18, 7, 15, 16, 1, 17, 6, 19, 19, 7, 10, 5, 2, 1, 6, 11, 11, 3, 18, 10, 14, 1, 15, 9, 1, 11, 1, 4, 12, 11, 3, 17, 17, 19, 12, 18, 7, 7, 13, 10, 7, 19, 10, 13, 14, 11, 4, 14, 4, 2, 18, 4, 2, 12, 11, 9, 4, 19, 16, 8, 17, 12, 3, 13, 6, 3, 11, 2, 9, 17, 12, 1, 11, 14, 12, 7, 13, 2, 2, 5, 19, 12, 5, 1, 8, 5, 8, 11, 4, 15, 6, 11, 10, 1, 14, 17, 1, 11, 17, 18, 16, 8, 4, 12, 16, 3, 12, 14, 1, 2, 11, 12, 17, 8, 7, 16, 17, 16, 13, 8, 13, 17, 7, 4, 18, 9, 18, 17, 19, 1, 9, 14, 8, 1, 15, 11, 8, 18, 6, 7, 6, 3, 11, 9, 9, 19, 12, 1, 2, 13, 5, 10, 12, 1, 7, 2, 3, 5, 1, 17, 13, 7, 3, 17, 14, 19, 16, 14, 10, 9, 5, 18, 7, 12, 11, 8, 16, 17, 14, 6, 9, 2, 5, 16, 11, 10, 17, 7, 3, 4, 18, 6, 6, 1, 15, 2, 10, 5, 1, 3, 12, 2, 6, 7, 9, 9, 19, 8, 11, 18, 13, 1, 1, 1, 19, 6, 1, 11, 2, 11, 15, 16, 4, 8, 10, 13, 12, 9, 3, 1, 7, 2, 1, 2, 16, 13, 7, 8, 2, 19, 10, 3, 1, 12, 18, 5, 1, 13, 3, 8, 8, 6, 9, 1, 6, 7, 11, 1, 10, 17, 12, 7, 19, 1, 19, 19, 18, 7, 1, 16, 6, 18, 15, 12, 1, 13, 13, 15, 17, 13, 8, 9, 14, 13, 5, 17, 9, 13, 13, 2, 11, 7, 10, 18, 14, 11, 6, 1, 9, 4, 12, 3, 8, 11, 1, 2, 10, 11, 1, 11, 14, 1, 18, 18, 9, 15, 13, 16, 11, 9, 13, 2, 16, 14, 9, 1, 18, 3, 2, 16, 6, 12, 14, 17, 12, 11, 14, 4, 1, 10, 7, 16, 17, 2, 8, 8, 14, 4, 5, 2, 11, 13, 10, 6, 18, 19, 11, 9, 2, 1, 15, 4, 1, 11, 5, 1, 6, 1, 18, 9, 15, 4, 7, 1, 8, 5, 17, 2, 13, 6, 12, 4, 5, 1, 7, 12, 11, 5, 16, 2, 8, 15, 14, 5, 3, 14, 2, 7, 6, 3, 18, 18, 4, 17, 12, 9, 4, 11, 12, 18, 3, 5, 7, 11, 6, 9, 2, 9, 19, 3, 17, 7, 15, 7, 16, 17, 1, 18, 18, 11, 12, 3, 1, 6, 17, 16, 3, 3, 4, 15, 17, 16, 13, 18, 18, 7, 6, 19, 18, 4, 9, 16, 7, 1, 16, 4, 19, 5, 5, 17, 11, 7, 1, 1, 3, 1, 2, 14, 15, 18, 14, 10, 1, 13, 17, 3, 2, 4, 17, 2, 16, 4, 19, 10, 18, 13, 8, 12, 14, 3, 12, 5, 12, 16, 2, 17, 1, 12, 1, 5, 12, 19, 13, 6, 9, 3, 8, 4, 8, 3, 5, 11, 4, 19, 17, 12, 18, 1, 6, 2, 8, 4, 19, 18, 7, 11, 14, 19, 11, 18, 7, 15, 5, 18, 3, 19, 3, 18, 6, 14, 4, 10, 18, 4, 1, 7, 16, 10, 7, 1, 17, 14, 13, 1, 16, 18, 9, 8, 1, 18, 8, 8, 1, 12, 11, 2, 9, 15, 18, 6, 6, 18, 8, 16, 10, 12, 13, 17, 17, 11, 14, 19, 13, 11, 10, 9, 2, 10, 17, 11, 10, 8, 6, 12, 18, 10, 11, 2, 18, 19, 9, 17, 6, 5, 8, 13, 1, 4, 16, 3, 17, 14, 4, 13, 10, 13, 12, 6, 1, 11, 17, 14, 9, 5, 1, 13, 14, 3, 12, 12, 18, 5, 2, 13, 16, 4, 11, 14, 11, 16, 15, 10, 8, 14, 10, 12, 5, 3, 13, 18, 14, 4, 10, 15, 9, 8, 1, 12, 4, 1, 18, 8, 3, 14, 15, 8, 3, 14, 8, 11, 11, 1, 6, 12, 14, 9, 12, 14, 7, 10, 14, 16, 5, 13, 1, 8, 10, 4, 1, 13, 15, 17, 6, 15, 14, 18, 2, 5, 12, 9, 9, 13, 13, 15, 16, 3, 12, 10, 11, 16, 14, 8, 9, 18, 7, 15, 16, 1, 17, 6, 19, 19, 7, 10, 5, 2, 1, 6, 11, 11, 3, 18, 10, 14, 1, 15, 9, 1, 11, 1, 4, 12, 11, 3, 17, 17, 19, 12, 18, 7, 7, 13, 10, 7, 19, 10, 13, 14, 11, 4, 14, 4, 2, 18, 4, 2, 12, 11, 9, 4, 19, 16, 8, 17, 12, 3, 13, 6, 3, 11, 2, 9, 17, 12, 1, 11, 14, 12, 7, 13, 2, 2, 5, 19, 12, 5, 1, 8, 5, 8, 11, 4, 15, 6, 11, 10, 1, 14, 17, 1, 11, 17, 18, 16, 8, 4, 12, 16, 3, 12, 14, 1, 2, 11, 12, 17, 8, 7, 16, 17, 16, 13, 8, 13, 17, 7, 4, 18, 9, 18, 17, 19, 1, 9, 14, 8, 1, 15, 11, 8, 18, 6, 7, 6, 3, 11, 9, 9, 19, 12, 1, 2, 13, 5, 10, 12, 1, 7, 2, 3, 5, 1, 17, 13, 7, 3, 17, 14, 19, 16, 14, 10, 9, 5, 18, 7, 12, 11, 8, 16, 17, 14, 6, 9, 2, 5, 16, 11, 10, 17, 7, 3, 4, 18, 6, 6, 1, 15, 2, 10, 5, 1, 3, 12, 2, 6, 7, 9, 9, 19, 8, 11, 18, 13, 1, 1, 1, 19, 6, 1, 11, 2, 11, 15, 16, 4, 8, 10, 13, 12, 9, 3, 1, 7, 2, 1, 2, 16, 13, 7, 8, 2, 19, 10, 3, 1, 12];
T = [15, 6, 10, 8, 13, 2, 1, 1, 11, 1, 1, 6, 10, 1, 6, 12, 4, 11, 23, 6, 16, 19, 14, 9, 5, 9, 6, 19, 19, 7, 1, 14, 5, 20, 24, 7, 13, 14, 12, 19, 5, 13, 3, 22, 6, 1, 12, 1, 14, 16, 18, 10, 11, 1, 7, 1, 9, 5, 9, 20, 13, 1, 14, 7, 1, 1, 10, 2, 19, 22, 12, 21, 14, 20, 11, 9, 15, 1, 15, 17, 11, 2, 11, 9, 1, 12, 3, 8, 13, 11, 1, 8, 16, 2, 1, 13, 1, 14, 13, 1, 2, 6, 14, 3, 5, 4, 6, 14, 12, 1, 15, 26, 7, 6, 5, 6, 13, 4, 1, 8, 2, 4, 10, 1, 29, 9, 12, 4, 2, 1, 2, 3, 19, 1, 18, 9, 11, 2, 4, 1, 14, 10, 16, 5, 10, 9, 6, 23, 19, 8, 1, 15, 1, 9, 1, 2, 9, 13, 8, 15, 19, 8, 5, 6, 16, 23, 1, 13, 6, 3, 7, 17, 1, 10, 12, 1, 8, 15, 9, 4, 14, 12, 1, 16, 17, 13, 11, 7, 1, 10, 24, 11, 10, 1, 5, 21, 12, 16, 9, 11, 14, 1, 9, 19, 26, 3, 10, 11, 1, 2, 17, 6, 29, 7, 8, 8, 12, 6, 1, 2, 6, 2, 1, 13, 10, 17, 15, 3, 1, 20, 16, 1, 1, 1, 20, 1, 11, 9, 15, 9, 15, 17, 6, 8, 12, 4, 2, 9, 9, 13, 1, 18, 6, 11, 1, 10, 13, 12, 18, 6, 5, 7, 14, 9, 2, 5, 10, 4, 4, 23, 25, 6, 18, 1, 7, 2, 1, 10, 16, 22, 7, 6, 10, 22, 17, 18, 18, 21, 1, 14, 17, 15, 2, 15, 1, 8, 9, 4, 19, 3, 10, 6, 15, 6, 12, 1, 10, 9, 12, 11, 17, 22, 1, 1, 1, 9, 7, 21, 4, 1, 9, 1, 10, 19, 7, 9, 15, 18, 10, 27, 12, 13, 16, 23, 10, 9, 13, 16, 18, 7, 11, 7, 5, 5, 28, 11, 9, 12, 6, 10, 19, 1, 11, 9, 17, 12, 14, 12, 4, 1, 7, 11, 1, 4, 20, 1, 22, 18, 3, 7, 4, 5, 17, 2, 8, 18, 24, 13, 3, 3, 1, 6, 14, 5, 12, 21, 18, 10, 2, 12, 7, 1, 9, 16, 12, 12, 15, 8, 8, 11, 10, 17, 9, 3, 12, 21, 22, 3, 7, 20, 9, 1, 8, 4, 1, 1, 11, 11, 1, 22, 12, 6, 9, 10, 2, 4, 18, 1, 17, 7, 5, 11, 10, 17, 8, 11, 10, 24, 10, 26, 7, 9, 10, 2, 1, 11, 26, 26, 9, 20, 14, 26, 1, 7, 16, 10, 1, 7, 18, 12, 10, 1, 5, 6, 20, 24, 8, 4, 1, 18, 15, 3, 16, 5, 19, 7, 22, 19, 12, 13, 3, 3, 1, 1, 1, 5, 10, 11, 16, 25, 1, 8, 2, 1, 8, 1, 6, 8, 7, 1, 13, 17, 19, 5, 12, 9, 5, 21, 10, 7, 26, 7, 11, 13, 18, 7, 17, 7, 1, 20, 1, 1, 7, 15, 10, 9, 21, 5, 3, 12, 9, 1, 10, 1, 3, 7, 3, 9, 18, 15, 1, 8, 10, 8, 4, 15, 2, 2, 1, 16, 23, 7, 1, 9, 1, 5, 8, 3, 19, 2, 10, 14, 1, 16, 19, 8, 12, 11, 19, 17, 4, 1, 10, 11, 1, 22, 11, 1, 1, 13, 4, 9, 10, 3, 13, 20, 15, 9, 7, 9, 15, 8, 1, 27, 2, 10, 9, 26, 1, 7, 24, 12, 5, 10, 7, 3, 22, 8, 10, 13, 2, 9, 8, 15, 10, 16, 1, 4, 17, 1, 15, 15, 2, 11, 4, 1, 3, 3, 17, 7, 3, 2, 21, 16, 8, 12, 7, 14, 9, 1, 16, 3, 6, 9, 9, 17, 15, 15, 8, 13, 5, 3, 13, 21, 19, 20, 12, 1, 16, 22, 10, 12, 1, 13, 1, 15, 4, 2, 3, 16, 1, 2, 8, 10, 7, 18, 9, 12, 16, 12, 1, 1, 11, 20, 10, 2, 8, 2, 11, 14, 9, 2, 2, 15, 8, 12, 10, 5, 6, 7, 10, 6, 18, 18, 1, 11, 6, 6, 18, 16, 3, 1, 20, 15, 6, 10, 8, 13, 2, 1, 1, 11, 1, 1, 6, 10, 1, 6, 12, 4, 11, 23, 6, 16, 19, 14, 9, 5, 9, 6, 19, 19, 7, 1, 14, 5, 20, 24, 7, 13, 14, 12, 19, 5, 13, 3, 22, 6, 1, 12, 1, 14, 16, 18, 10, 11, 1, 7, 1, 9, 5, 9, 20, 13, 1, 14, 7, 1, 1, 10, 2, 19, 22, 12, 21, 14, 20, 11, 9, 15, 1, 15, 17, 11, 2, 11, 9, 1, 12, 3, 8, 13, 11, 1, 8, 16, 2, 1, 13, 1, 14, 13, 1, 2, 6, 14, 3, 5, 4, 6, 14, 12, 1, 15, 26, 7, 6, 5, 6, 13, 4, 1, 8, 2, 4, 10, 1, 29, 9, 12, 4, 2, 1, 2, 3, 19, 1, 18, 9, 11, 2, 4, 1, 14, 10, 16, 5, 10, 9, 6, 23, 19, 8, 1, 15, 1, 9, 1, 2, 9, 13, 8, 15, 19, 8, 5, 6, 16, 23, 1, 13, 6, 3, 7, 17, 1, 10, 12, 1, 8, 15, 9, 4, 14, 12, 1, 16, 17, 13, 11, 7, 1, 10, 24, 11, 10, 1, 5, 21, 12, 16, 9, 11, 14, 1, 9, 19, 26, 3, 10, 11, 1, 2, 17, 6, 29, 7, 8, 8, 12, 6, 1, 2, 6, 2, 1, 13, 10, 17, 15, 3, 1, 20, 16, 1, 1, 1, 20, 1, 11, 9, 15, 9, 15, 17, 6, 8, 12, 4, 2, 9, 9, 13, 1, 18, 6, 11, 1, 10, 13, 12, 18, 6, 5, 7, 14, 9, 2, 5, 10, 4, 4, 23, 25, 6, 18, 1, 7, 2, 1, 10, 16, 22, 7, 6, 10, 22, 17, 18, 18, 21, 1, 14, 17, 15, 2, 15, 1, 8, 9, 4, 19, 3, 10, 6, 15, 6, 12, 1, 10, 9, 12, 11, 17, 22, 1, 1, 1, 9, 7, 21, 4, 1, 9, 1, 10, 19, 7, 9, 15, 18, 10, 27, 12, 13, 16, 23, 10, 9, 13, 16, 18, 7, 11, 7, 5, 5, 28, 11, 9, 12, 6, 10, 19, 1, 11, 9, 17, 12, 14, 12, 4, 1, 7, 11, 1, 4, 20, 1, 22, 18, 3, 7, 4, 5, 17, 2, 8, 18, 24, 13, 3, 3, 1, 6, 14, 5, 12, 21, 18, 10, 2, 12, 7, 1, 9, 16, 12, 12, 15, 8, 8, 11, 10, 17, 9, 3, 12, 21, 22, 3, 7, 20, 9, 1, 8, 4, 1, 1, 11, 11, 1, 22, 12, 6, 9, 10, 2, 4, 18, 1, 17, 7, 5, 11, 10, 17, 8, 11, 10, 24, 10, 26, 7, 9, 10, 2, 1, 11, 26, 26, 9, 20, 14, 26, 1, 7, 16, 10, 1, 7, 18, 12, 10, 1, 5, 6, 20, 24, 8, 4, 1, 18, 15, 3, 16, 5, 19, 7, 22, 19, 12, 13, 3, 3, 1, 1, 1, 5, 10, 11, 16, 25, 1, 8, 2, 1, 8, 1, 6, 8, 7, 1, 13, 17, 19, 5, 12, 9, 5, 21, 10, 7, 26, 7, 11, 13, 18, 7, 17, 7, 1, 20, 1, 1, 7, 15, 10, 9, 21, 5, 3, 12, 9, 1, 10, 1, 3, 7, 3, 9, 18, 15, 1, 8, 10, 8, 4, 15, 2, 2, 1, 16, 23, 7, 1, 9, 1, 5, 8, 3, 19, 2, 10, 14, 1, 16, 19, 8, 12, 11, 19, 17, 4, 1, 10, 11, 1, 22, 11, 1, 1, 13, 4, 9, 10, 3, 13, 20, 15, 9, 7, 9, 15, 8, 1, 27, 2, 10, 9, 26, 1, 7, 24, 12, 5, 10, 7, 3, 22, 8, 10, 13, 2, 9, 8, 15, 10, 16, 1, 4, 17, 1, 15, 15, 2, 11, 4, 1, 3, 3, 17, 7, 3, 2, 21, 16, 8, 12, 7, 14, 9, 1, 16, 3, 6, 9, 9, 17, 15, 15, 8, 13, 5, 3, 13, 21, 19, 20, 12, 1, 16, 22, 10, 12, 1, 13, 1, 15, 4, 2, 3, 16, 1, 2, 8, 10, 7, 18, 9, 12, 16, 12, 1, 1, 11, 20, 10, 2, 8, 2, 11, 14, 9, 2, 2, 15, 8, 12, 10, 5, 6, 7, 10, 6, 18, 18, 1, 11, 6, 6, 18, 16, 3, 1, 20];
Lower_Bound = [0, 16, 25, 33, 35, 36, 47, 48, 55, 64, 77, 83, 87, 151, 129, 134, 152, 166, 172, 180, 199, 218, 225, 228, 231, 251, 252, 341, 327, 316, 310, 323, 316, 8, 7, 19, 33, 36, 58, 49, 49, 55, 57, 65, 95, 98, 111, 112, 140, 143, 142, 178, 180, 183, 189, 243, 210, 233, 220, 239, 248, 321, 306, 307, 293, 311, 312, 18, 8, 20, 23, 36, 48, 55, 56, 58, 61, 60, 74, 135, 125, 127, 133, 136, 142, 148, 161, 162, 178, 183, 190, 195, 208, 210, 297, 296, 291, 281, 282, 291, 303, 18, 22, 24, 26, 37, 56, 57, 67, 72, 75, 76, 125, 134, 129, 139, 145, 140, 166, 159, 176, 175, 176, 178, 191, 200, 219, 217, 222, 228, 251, 254, 259, 261, 279, 33, 23, 25, 30, 44, 53, 82, 68, 71, 85, 98, 109, 110, 120, 148, 159, 160, 165, 200, 183, 192, 185, 187, 207, 222, 248, 249, 238, 239, 241, 247, 265, 273, 279, 39, 33, 32, 34, 40, 43, 95, 95, 87, 115, 105, 122, 134, 138, 139, 201, 181, 212, 211, 212, 207, 204, 196, 204, 219, 225, 233, 237, 256, 263, 254, 267, 268, 274, 388, 387, 379, 344, 328, 321, 315, 308, 299, 297, 287, 283, 260, 235, 217, 216, 214, 214, 223, 213, 235, 221, 225, 221, 244, 237, 258, 239, 304, 317, 302, 285, 287, 285, 378, 370, 361, 357, 340, 328, 322, 316, 304, 298, 289, 277, 269, 262, 224, 225, 226, 234, 253, 257, 242, 244, 235, 242, 251, 270, 278, 291, 307, 326, 318, 330, 289, 350, 408, 401, 394, 361, 365, 344, 349, 317, 313, 306, 287, 286, 278, 261, 246, 234, 235, 237, 238, 242, 243, 262, 260, 257, 261, 266, 268, 277, 300, 335, 322, 325, 327, 332, 419, 397, 389, 378, 356, 346, 340, 328, 322, 312, 297, 284, 270, 262, 250, 267, 247, 249, 258, 268, 265, 272, 267, 268, 276, 279, 278, 289, 302, 307, 323, 328, 338, 343, 393, 393, 386, 382, 374, 344, 338, 329, 318, 308, 301, 292, 294, 271, 287, 276, 280, 270, 284, 303, 296, 280, 279, 272, 319, 301, 291, 290, 296, 303, 325, 331, 347, 361, 385, 367, 374, 358, 355, 350, 326, 315, 301, 298, 297, 296, 295, 324, 313, 315, 301, 286, 285, 305, 306, 318, 316, 323, 332, 343, 333, 327, 316, 335, 329, 339, 346, 353, 376, 363, 356, 342, 338, 359, 319, 317, 348, 331, 322, 306, 305, 315, 306, 307, 296, 294, 302, 304, 322, 320, 328, 324, 332, 336, 365, 337, 338, 339, 388, 365, 366, 364, 369, 368, 363, 340, 338, 335, 326, 326, 342, 339, 327, 333, 316, 317, 327, 299, 299, 309, 310, 337, 323, 332, 343, 357, 347, 356, 364, 365, 355, 381, 383, 384, 376, 380, 401, 378, 365, 359, 352, 349, 355, 345, 347, 350, 347, 338, 338, 329, 322, 322, 339, 310, 312, 335, 331, 332, 335, 354, 350, 353, 374, 363, 371, 383, 397, 402, 386, 383, 392, 383, 375, 391, 374, 381, 368, 368, 355, 375, 355, 343, 343, 349, 338, 340, 339, 338, 323, 326, 328, 329, 332, 343, 348, 357, 371, 386, 378, 379, 398, 399, 392, 402, 401, 405, 400, 397, 386, 395, 386, 384, 382, 367, 360, 371, 360, 359, 354, 349, 343, 350, 341, 347, 337, 355, 356, 369, 373, 403, 398, 415, 432, 424, 419, 423, 405];
Upper_Bound = [2, 17, 26, 42, 39, 51, 49, 50, 56, 69, 81, 87, 88, 153, 136, 135, 153, 177, 174, 181, 202, 224, 226, 233, 234, 255, 260, 343, 333, 317, 312, 325, 321, 14, 10, 21, 35, 38, 62, 51, 57, 57, 68, 66, 104, 100, 113, 114, 143, 144, 149, 180, 181, 184, 196, 244, 220, 238, 230, 248, 250, 326, 307, 314, 297, 313, 332, 21, 9, 21, 24, 42, 61, 65, 57, 59, 62, 62, 84, 137, 127, 133, 141, 138, 145, 156, 163, 167, 180, 188, 192, 203, 212, 228, 305, 298, 300, 284, 293, 298, 305, 23, 28, 35, 28, 38, 57, 60, 76, 73, 84, 84, 130, 141, 131, 148, 152, 148, 169, 160, 183, 177, 179, 188, 201, 201, 222, 220, 235, 234, 252, 263, 268, 265, 284, 37, 25, 32, 53, 59, 56, 83, 83, 72, 97, 101, 127, 112, 124, 163, 167, 164, 167, 201, 193, 193, 188, 190, 211, 226, 255, 257, 241, 240, 252, 251, 270, 276, 283, 40, 34, 45, 39, 43, 47, 101, 100, 89, 119, 114, 125, 136, 144, 149, 202, 182, 214, 212, 215, 209, 208, 197, 208, 220, 233, 238, 238, 260, 271, 255, 268, 274, 275, 391, 399, 386, 346, 330, 323, 324, 311, 307, 298, 295, 284, 270, 238, 218, 218, 224, 215, 225, 218, 248, 236, 229, 224, 251, 238, 260, 242, 307, 320, 306, 286, 298, 286, 384, 371, 368, 359, 342, 329, 329, 317, 306, 314, 294, 285, 283, 265, 227, 244, 228, 235, 255, 258, 246, 245, 242, 247, 255, 274, 280, 293, 309, 327, 326, 331, 294, 352, 409, 402, 395, 363, 374, 346, 354, 326, 321, 313, 291, 292, 279, 263, 255, 236, 243, 245, 248, 243, 245, 272, 261, 258, 262, 269, 269, 283, 305, 338, 327, 328, 331, 336, 420, 402, 391, 384, 358, 347, 343, 335, 330, 313, 299, 290, 271, 263, 254, 268, 248, 264, 264, 280, 281, 276, 270, 269, 278, 280, 282, 290, 305, 310, 327, 333, 361, 350, 403, 394, 388, 390, 375, 351, 339, 344, 319, 322, 308, 294, 306, 272, 296, 278, 285, 277, 289, 304, 297, 284, 280, 274, 325, 302, 292, 296, 297, 309, 326, 338, 352, 365, 387, 372, 376, 365, 356, 353, 327, 320, 316, 299, 298, 297, 302, 327, 315, 320, 313, 288, 286, 311, 313, 321, 317, 325, 336, 345, 337, 329, 318, 338, 341, 340, 348, 368, 377, 364, 365, 343, 346, 360, 324, 318, 350, 339, 324, 307, 307, 325, 313, 316, 303, 298, 308, 305, 329, 325, 329, 326, 338, 338, 370, 341, 339, 340, 389, 370, 368, 370, 373, 370, 366, 341, 347, 346, 329, 328, 349, 345, 329, 334, 322, 319, 339, 304, 300, 316, 311, 341, 324, 335, 345, 359, 354, 367, 375, 377, 356, 383, 395, 388, 378, 384, 403, 388, 371, 361, 359, 350, 358, 349, 348, 358, 358, 348, 364, 332, 324, 333, 340, 314, 317, 337, 333, 334, 343, 356, 353, 361, 379, 366, 374, 386, 401, 407, 400, 385, 393, 385, 376, 403, 376, 390, 383, 371, 359, 377, 357, 346, 347, 351, 342, 342, 346, 343, 325, 329, 343, 336, 339, 345, 349, 361, 384, 387, 379, 381, 399, 404, 425, 404, 403, 407, 407, 398, 395, 399, 388, 398, 387, 372, 371, 372, 371, 362, 356, 350, 347, 356, 356, 350, 339, 374, 364, 371, 374, 405, 401, 423, 438, 426, 423, 426, 408];
Start = 1;
End = 576;
Time = 408;
